NAME: random-41-7648
TYPE: TSP
COMMENT: size=41 seed=7648
DIMENSION: 84
EDGE_WEIGHT_TYPE: EUC_2D
NODE_COORD_SECTION
+0 936 470
-0 936 470
+1 762 178
-1 239 367
+2 939 676
-2 469 36
+3 131 408
-3 600 947
+4 492 866
-4 316 959
+5 120 468
-5 344 331
+6 143 821
-6 311 497
+7 661 866
-7 442 885
+8 247 155
-8 917 214
+9 206 657
-9 579 290
+10 433 898
-10 342 361
+11 926 675
-11 734 366
+12 717 297
-12 934 653
+13 538 718
-13 555 889
+14 512 353
-14 849 583
+15 910 442
-15 396 519
+16 433 25
-16 451 13
+17 288 676
-17 741 449
+18 487 188
-18 523 328
+19 12 527
-19 272 682
+20 363 86
-20 305 193
+21 936 702
-21 430 883
+22 227 739
-22 223 430
+23 692 61
-23 856 678
+24 271 931
-24 651 440
+25 125 290
-25 596 683
+26 551 300
-26 704 212
+27 223 428
-27 650 554
+28 833 36
-28 114 71
+29 29 883
-29 762 917
+30 815 236
-30 678 488
+31 325 348
-31 293 842
+32 87 460
-32 815 578
+33 733 226
-33 366 653
+34 526 560
-34 778 346
+35 409 506
-35 533 885
+36 728 398
-36 372 952
+37 664 696
-37 300 54
+38 499 743
-38 865 140
+39 329 420
-39 602 421
+40 639 867
-40 705 522
+41 825 847
-41 693 270
PRECEDENCE_SECTION
+0 -0
+1 -1
+2 -2
+3 -3
+4 -4
+5 -5
+6 -6
+7 -7
+8 -8
+9 -9
+10 -10
+11 -11
+12 -12
+13 -13
+14 -14
+15 -15
+16 -16
+17 -17
+18 -18
+19 -19
+20 -20
+21 -21
+22 -22
+23 -23
+24 -24
+25 -25
+26 -26
+27 -27
+28 -28
+29 -29
+30 -30
+31 -31
+32 -32
+33 -33
+34 -34
+35 -35
+36 -36
+37 -37
+38 -38
+39 -39
+40 -40
+41 -41
EOF
